200
120
100
100
100
100
100
99
99
99
97
97
97
96
96
96
95
95
95
94
93
93
93
93
93
93
92
92
92
90
90
90
90
90
90
89
89
89
88
88
88
88
87
87
86
86
85
84
83
83
83
82
82
82
82
81
81
80
80
80
80
79
79
78
78
78
77
77
77
77
77
76
75
75
74
74
73
72
71
70
69
69
68
67
67
67
67
67
66
66
66
65
65
65
65
64
64
64
63
63
61
61
61
61
60
60
59
59
59
59
58
57
57
57
57
56
56
55
55
55
55
54
54
54
54
53
53
53
52
52
52
51
51
51
51
51
50
50
50
50
50
49
49
49
48
48
47
47
47
47
47
45
45
44
44
44
43
43
42
42
42
41
41
41
41
40
40
40
39
39
39
38
38
37
37
37
36
36
36
36
35
34
34
34
34
34
33
33
33
33
32
32
31
31
31
31
31
31
30
30
30
30
